
m = 12;

n = 12;

Amin = 57;

Amax = 72;

B = 2736;

lambda = 20.00;

c = 
[[3,9,9,10,9,6,8,5,10,5,3,10],
[3,7,2,7,4,10,10,5,7,9,6,3],
[3,7,6,10,10,9,6,2,8,4,9,4],
[9,6,6,6,7,5,3,8,10,3,3,4],
[2,2,5,5,7,9,5,9,3,9,6,10],
[6,10,8,10,10,6,10,6,2,5,8,5],
[6,9,10,4,8,9,4,7,7,7,10,4],
[4,4,9,5,10,4,4,5,10,2,4,7],
[6,3,3,4,5,9,6,7,6,5,9,3],
[10,2,6,6,8,6,6,8,6,4,2,5],
[4,5,6,10,3,8,7,7,8,8,8,9],
[4,3,5,8,4,2,8,3,9,3,7,6]];
